
Gurobi 7.5.2 (linux64) logging started Sat Jun 23 17:00:42 2018

Changed value of parameter LogFile to result/ilp/simNo_2-n_100-m_40-s_4-minVAF_0.05-cov_2000-k_2-fn_0.05-fp_0.0001-na_0.15.ILP.gurobiSolverLog
   Prev: gurobi.log  Default: 
Changed value of parameter TimeLimit to 86400.0
   Prev: 1e+100  Min: 0.0  Max: 1e+100  Default: 1e+100
Optimize a model with 1265601 rows, 330440 columns and 3489120 nonzeros
Variable types: 0 continuous, 330440 integer (330440 binary)
Coefficient statistics:
  Matrix range     [2e-03, 3e+00]
  Objective range  [6e-02, 9e+00]
  Bounds range     [1e+00, 1e+00]
  RHS range        [2e-01, 2e+00]
Found heuristic solution: objective -20582.64213
Presolve removed 281424 rows and 208398 columns (presolve time = 5s) ...
Presolve removed 303413 rows and 208398 columns (presolve time = 11s) ...
Presolve removed 304017 rows and 208398 columns (presolve time = 15s) ...
Presolve removed 304017 rows and 208398 columns (presolve time = 20s) ...
Presolve removed 304017 rows and 208398 columns (presolve time = 25s) ...
Presolve removed 304017 rows and 208398 columns (presolve time = 30s) ...
Presolve removed 304017 rows and 208398 columns (presolve time = 35s) ...
Presolve removed 304017 rows and 208398 columns (presolve time = 41s) ...
Presolve removed 304017 rows and 208398 columns (presolve time = 45s) ...
Presolve removed 304017 rows and 208398 columns (presolve time = 50s) ...
Presolve removed 304017 rows and 208398 columns (presolve time = 55s) ...
Presolve removed 304017 rows and 208398 columns (presolve time = 60s) ...
Presolve removed 304017 rows and 208398 columns (presolve time = 65s) ...
Presolve removed 304017 rows and 208398 columns
Presolve time: 67.44s
Presolved: 961584 rows, 122042 columns, 2663350 nonzeros
Variable types: 0 continuous, 122042 integer (122042 binary)
Presolved: 122042 rows, 1083626 columns, 2785392 nonzeros

Presolve removed 122042 rows and 1083626 columns

Root simplex log...

Iteration    Objective       Primal Inf.    Dual Inf.      Time
       0    8.0624276e+00   0.000000e+00   1.310450e+05     80s
    7034   -1.0522019e+02   0.000000e+00   5.751933e+04     80s
   20580   -2.1956502e+02   0.000000e+00   3.041950e+04     85s
   28918   -2.3854180e+02   0.000000e+00   0.000000e+00     90s
   28918   -2.3854180e+02   0.000000e+00   0.000000e+00     92s

Root relaxation: objective -2.385418e+02, 28918 iterations, 19.88 seconds
Total elapsed time = 129.46s
Total elapsed time = 144.72s
Total elapsed time = 160.56s

    Nodes    |    Current Node    |     Objective Bounds      |     Work
 Expl Unexpl |  Obj  Depth IntInf | Incumbent    BestBd   Gap | It/Node Time

     0     0 -238.54180    0 1442 -20582.642 -238.54180  98.8%     -  169s
H    0     0                    -280.0737242 -238.54180  14.8%     -  199s
     0     0 -244.90844    0 1466 -280.07372 -244.90844  12.6%     -  230s
     0     0 -244.90844    0 1464 -280.07372 -244.90844  12.6%     -  257s
     0     0 -249.23295    0 1453 -280.07372 -249.23295  11.0%     -  279s
     0     0 -250.12960    0 1503 -280.07372 -250.12960  10.7%     -  306s
     0     0 -250.26125    0 1516 -280.07372 -250.26125  10.6%     -  317s
     0     0 -250.35638    0 1537 -280.07372 -250.35638  10.6%     -  328s
     0     0 -250.36373    0 1536 -280.07372 -250.36373  10.6%     -  337s
     0     0 -252.36189    0 1515 -280.07372 -252.36189  9.89%     -  362s
     0     0 -252.68405    0 1506 -280.07372 -252.68405  9.78%     -  388s
     0     0 -252.71989    0 1507 -280.07372 -252.71989  9.77%     -  397s
     0     0 -254.52756    0 1492 -280.07372 -254.52756  9.12%     -  421s
     0     0 -254.88662    0 1532 -280.07372 -254.88662  8.99%     -  448s
     0     0 -254.93506    0 1525 -280.07372 -254.93506  8.98%     -  461s
     0     0 -254.94139    0 1533 -280.07372 -254.94139  8.97%     -  470s
     0     0 -256.08171    0 1509 -280.07372 -256.08171  8.57%     -  499s
     0     0 -256.08550    0 1529 -280.07372 -256.08550  8.56%     -  525s
     0     0 -256.08550    0 1515 -280.07372 -256.08550  8.56%     -  533s
     0     0 -257.36396    0 1517 -280.07372 -257.36396  8.11%     -  565s
     0     0 -257.44800    0 1501 -280.07372 -257.44800  8.08%     -  587s
     0     0 -257.65699    0 1523 -280.07372 -257.65699  8.00%     -  598s
     0     0 -257.71674    0 1523 -280.07372 -257.71674  7.98%     -  609s
     0     0 -257.71714    0 1522 -280.07372 -257.71714  7.98%     -  618s
     0     0 -260.03340    0 1468 -280.07372 -260.03340  7.16%     -  646s
     0     0 -260.07234    0 1464 -280.07372 -260.07234  7.14%     -  668s
     0     0 -260.07234    0 1465 -280.07372 -260.07234  7.14%     -  672s
     0     0 -261.38951    0 1463 -280.07372 -261.38951  6.67%     -  698s
     0     0 -261.38951    0 1464 -280.07372 -261.38951  6.67%     -  721s
     0     0 -261.52056    0 1460 -280.07372 -261.52056  6.62%     -  746s
     0     0 -261.80801    0 1465 -280.07372 -261.80801  6.52%     -  771s
     0     0 -261.87001    0 1466 -280.07372 -261.87001  6.50%     -  785s
     0     0 -261.87001    0 1461 -280.07372 -261.87001  6.50%     -  794s
     0     0 -263.22753    0 1478 -280.07372 -263.22753  6.01%     -  822s
     0     0 -263.22753    0 1482 -280.07372 -263.22753  6.01%     -  847s
     0     0 -263.22753    0 1481 -280.07372 -263.22753  6.01%     -  871s
     0     0 -263.22753    0 1481 -280.07372 -263.22753  6.01%     -  895s
     0     0 -263.22753    0 1408 -280.07372 -263.22753  6.01%     - 1034s
     0     0 -263.22753    0 1409 -280.07372 -263.22753  6.01%     - 1057s
     0     0 -263.22753    0 1396 -280.07372 -263.22753  6.01%     - 1119s
     0     0 -263.22753    0 1396 -280.07372 -263.22753  6.01%     - 1143s
H    0     0                    -279.7450615 -263.22753  5.90%     - 1237s
     0     2 -263.23428    0 1396 -279.74506 -263.23428  5.90%     - 1237s
     1     3 -266.56829    1  471 -279.74506 -263.27797  5.89%  2042 1266s
     2     4 -267.38347    2  300 -279.74506 -263.27797  5.89%  1104 1271s
     4     6 -268.82498    4  238 -279.74506 -263.27797  5.89%   598 1276s
     5     7 -276.03249    4   47 -279.74506 -263.27797  5.89%   570 1282s
H    6     6                    -273.8702388 -263.27797  3.87%   475 1282s
     8     6 -268.82498    5  282 -273.87024 -263.27797  3.87%   382 1285s
    10     6 -270.26648    6  292 -273.87024 -263.27797  3.87%   375 1291s
    13     6 -271.94823    8  212 -273.87024 -263.27797  3.87%   317 1295s
    19     4     cutoff    1      -273.87024 -266.56864  2.67%   290 1309s
    20     5 -267.16888    2  412 -273.87024 -267.16888  2.45%   356 1331s
    21     6 -269.32745    3  395 -273.87024 -267.18047  2.44%   380 1339s
    22     7 -269.80795    4  342 -273.87024 -267.18047  2.44%   370 1341s
    23     8 -270.02675    5  298 -273.87024 -267.18047  2.44%   375 1347s
    24     9 -270.26700    6  265 -273.87024 -267.18047  2.44%   365 1352s
    26    11 -272.42926    7   53 -273.87024 -267.18047  2.44%   356 1358s
    28     9     cutoff    8      -273.87024 -267.18047  2.44%   341 1360s
    31    10 -272.42926    9  133 -273.87024 -267.18047  2.44%   318 1366s
    35     8 -268.70992    3  537 -273.87024 -267.38347  2.37%   341 1378s
    36     9 -272.07252    4  475 -273.87024 -267.38347  2.37%   350 1384s
    37     8     cutoff    5      -273.87024 -267.38347  2.37%   347 1386s
    39     8 -270.64438    4  507 -273.87024 -267.38347  2.37%   343 1392s
    41    10 -270.81060    6  503 -273.87024 -267.38347  2.37%   333 1396s
    43    12 -272.12217    8  356 -273.87024 -267.38347  2.37%   331 1404s
    44    13 -272.41047    9  315 -273.87024 -267.38347  2.37%   326 1406s
    45    14 -273.85197    8  137 -273.87024 -267.38347  2.37%   332 1411s
    49    12 -273.85197   10  234 -273.87024 -267.38347  2.37%   309 1415s
    53     9 -273.14949    3   44 -273.87024 -269.52098  1.59%   312 1423s
    55     7     cutoff    4      -273.87024 -269.80795  1.48%   309 1427s
    56     8 -270.02675    5  298 -273.87024 -270.02675  1.40%   315 1434s
    57     9 -270.26700    6  263 -273.87024 -270.02675  1.40%   311 1438s
    58    10 -270.98775    7  179 -273.87024 -270.02675  1.40%   306 1440s
    60    10 -272.42926    8  181 -273.87024 -270.02675  1.40%   303 1445s
    64    10     cutoff   11      -273.87024 -270.02675  1.40%   288 1450s
    67     9 -272.42926    7   40 -273.87024 -270.02675  1.40%   289 1456s
    71     5     cutoff    6      -273.87024 -270.26648  1.32%   280 1461s
    74     2     cutoff    6      -273.87024 -270.85739  1.10%   281 1467s
    75     3 -273.25798    7  487 -273.87024 -271.94823  0.70%   295 1479s
    76     4 -273.25802    8  456 -273.87024 -271.94823  0.70%   292 1481s
    78     4 -273.25830    9  396 -273.87024 -271.94823  0.70%   291 1486s
    82     1 -273.60924    8  179 -273.87024 -273.60924  0.10%   281 1490s

Cutting planes:
  Gomory: 4
  MIR: 1
  Zero half: 151

Explored 84 nodes (89114 simplex iterations) in 1491.99 seconds
Thread count was 1 (of 80 available processors)

Solution count 4: -273.87 -279.745 -280.074 -20582.6 

Optimal solution found (tolerance 1.00e-04)
Best objective -2.738702387595e+02, best bound -2.738702387595e+02, gap 0.0000%
